
;this file is automatically generated: Fri Jan 03 16:26:56 GMT 2020

;declarations generated

(declare-fun oclExcludes ( Int Int) Bool)
(declare-fun Cardinality ( Int) Int)
(declare-fun obj_457d204e_336c_4c23_ae54_b335bf7a3bba ( Int) Int)
(declare-fun oclSelect ( Int Bool) Int)
(declare-fun type_ea1bb837_c83f_474d_98ca_f14da321aade_Class17 ( Int) Bool)
(declare-fun Enum0 ( Int) Int)
(declare-fun Enum1 ( Int) Int)
(declare-fun Enum2 ( Int) Int)
(declare-fun container_ ( Int) Int)
(declare-fun oclIncludes ( Int Int) Bool)
(declare-fun ObjAt ( Int Int) Int)

;formula(s) generated
(assert (forall ((p Int)) (=> ( type_ea1bb837_c83f_474d_98ca_f14da321aade_Class17 p )  (and (>= ( Enum2 ( obj_457d204e_336c_4c23_ae54_b335bf7a3bba p )  )  0) (<= ( Enum2 ( obj_457d204e_336c_4c23_ae54_b335bf7a3bba p )  )  6)))))
(assert (! (forall ((v Int)) (=> ( type_ea1bb837_c83f_474d_98ca_f14da321aade_Class17 v )  (not (= ( Enum2 ( obj_457d204e_336c_4c23_ae54_b335bf7a3bba v )  )  3) ))):named l0))
(assert (! (forall ((v Int)) (=> ( type_ea1bb837_c83f_474d_98ca_f14da321aade_Class17 v )  (not (= ( Enum2 ( obj_457d204e_336c_4c23_ae54_b335bf7a3bba v )  )  5) ))):named l1))
(assert (exists ((o Int)) ( type_ea1bb837_c83f_474d_98ca_f14da321aade_Class17 ( obj_457d204e_336c_4c23_ae54_b335bf7a3bba o )  ) ))

 ;end of formula 